
Gurobi 7.5.2 (linux64, Python) logging started Wed Jun 13 16:14:44 2018

Academic license - for non-commercial use only

Gurobi 7.5.2 (linux64, Python) logging started Wed Jun 13 16:26:40 2018

Academic license - for non-commercial use only
Warning: linear constraint 0 and linear constraint 5 have the same name "covering[2]"

Gurobi 7.5.2 (linux64, Python) logging started Wed Jun 13 16:42:29 2018

Academic license - for non-commercial use only
Optimize a model with 5 rows, 2 columns and 7 nonzeros
Variable types: 0 continuous, 2 integer (2 binary)
Coefficient statistics:
  Matrix range     [1e+00, 1e+00]
  Objective range  [1e+03, 4e+03]
  Bounds range     [1e+00, 1e+00]
  RHS range        [1e+00, 1e+00]
Found heuristic solution: objective 5154.0000000
Presolve removed 5 rows and 2 columns
Presolve time: 0.01s
Presolve: All rows and columns removed

Explored 0 nodes (0 simplex iterations) in 0.02 seconds
Thread count was 1 (of 8 available processors)

Solution count 1: 5154 

Optimal solution found (tolerance 1.00e-04)
Best objective 5.154000000000e+03, best bound 5.154000000000e+03, gap 0.0000%

Gurobi 7.5.2 (linux64, Python) logging started Wed Jun 13 16:52:51 2018

Academic license - for non-commercial use only
Optimize a model with 5 rows, 2 columns and 7 nonzeros
Variable types: 0 continuous, 2 integer (2 binary)
Coefficient statistics:
  Matrix range     [1e+00, 1e+00]
  Objective range  [1e+03, 4e+03]
  Bounds range     [1e+00, 1e+00]
  RHS range        [1e+00, 1e+00]
Found heuristic solution: objective 5154.0000000
Presolve removed 5 rows and 2 columns
Presolve time: 0.00s
Presolve: All rows and columns removed

Explored 0 nodes (0 simplex iterations) in 0.01 seconds
Thread count was 1 (of 8 available processors)

Solution count 1: 5154 

Optimal solution found (tolerance 1.00e-04)
Best objective 5.154000000000e+03, best bound 5.154000000000e+03, gap 0.0000%

Gurobi 7.5.2 (linux64, Python) logging started Wed Jun 13 16:54:17 2018

Academic license - for non-commercial use only
Optimize a model with 30 rows, 5 columns and 65 nonzeros
Variable types: 0 continuous, 5 integer (5 binary)
Coefficient statistics:
  Matrix range     [1e+00, 1e+00]
  Objective range  [2e+03, 9e+03]
  Bounds range     [1e+00, 1e+00]
  RHS range        [1e+00, 1e+00]
Found heuristic solution: objective 22413.000000
Presolve removed 30 rows and 5 columns
Presolve time: 0.00s
Presolve: All rows and columns removed

Explored 0 nodes (0 simplex iterations) in 0.00 seconds
Thread count was 1 (of 8 available processors)

Solution count 1: 22413 

Optimal solution found (tolerance 1.00e-04)
Best objective 2.241300000000e+04, best bound 2.241300000000e+04, gap 0.0000%

Gurobi 7.5.2 (linux64, Python) logging started Wed Jun 13 16:58:50 2018

Academic license - for non-commercial use only
Optimize a model with 30 rows, 5 columns and 65 nonzeros
Variable types: 0 continuous, 5 integer (5 binary)
Coefficient statistics:
  Matrix range     [1e+00, 1e+00]
  Objective range  [2e+03, 9e+03]
  Bounds range     [1e+00, 1e+00]
  RHS range        [1e+00, 1e+00]
Found heuristic solution: objective 22413.000000
Presolve removed 30 rows and 5 columns
Presolve time: 0.00s
Presolve: All rows and columns removed

Explored 0 nodes (0 simplex iterations) in 0.00 seconds
Thread count was 1 (of 8 available processors)

Solution count 1: 22413 

Optimal solution found (tolerance 1.00e-04)
Best objective 2.241300000000e+04, best bound 2.241300000000e+04, gap 0.0000%

Gurobi 7.5.2 (linux64, Python) logging started Wed Jun 13 17:02:55 2018

Academic license - for non-commercial use only
Optimize a model with 30 rows, 5 columns and 65 nonzeros
Variable types: 0 continuous, 5 integer (5 binary)
Coefficient statistics:
  Matrix range     [1e+00, 1e+00]
  Objective range  [2e+03, 9e+03]
  Bounds range     [1e+00, 1e+00]
  RHS range        [1e+00, 1e+00]
Found heuristic solution: objective 22413.000000
Presolve removed 30 rows and 5 columns
Presolve time: 0.00s
Presolve: All rows and columns removed

Explored 0 nodes (0 simplex iterations) in 0.00 seconds
Thread count was 1 (of 8 available processors)

Solution count 1: 22413 

Optimal solution found (tolerance 1.00e-04)
Best objective 2.241300000000e+04, best bound 2.241300000000e+04, gap 0.0000%

Gurobi 7.5.2 (linux64, Python) logging started Wed Jun 13 17:04:51 2018

Academic license - for non-commercial use only
Optimize a model with 30 rows, 5 columns and 65 nonzeros
Variable types: 0 continuous, 5 integer (5 binary)
Coefficient statistics:
  Matrix range     [1e+00, 1e+00]
  Objective range  [2e+03, 9e+03]
  Bounds range     [1e+00, 1e+00]
  RHS range        [1e+00, 1e+00]
Found heuristic solution: objective 22413.000000
Presolve removed 30 rows and 5 columns
Presolve time: 0.00s
Presolve: All rows and columns removed

Explored 0 nodes (0 simplex iterations) in 0.01 seconds
Thread count was 1 (of 8 available processors)

Solution count 1: 22413 

Optimal solution found (tolerance 1.00e-04)
Best objective 2.241300000000e+04, best bound 2.241300000000e+04, gap 0.0000%

Gurobi 7.5.2 (linux64, Python) logging started Wed Jun 13 17:15:15 2018

Academic license - for non-commercial use only
Warning: variables 0 and 5 have the same name "x[0]"
Warning: to let Gurobi read it back, use rlp format

Gurobi 7.5.2 (linux64, Python) logging started Wed Jun 13 17:15:34 2018

Academic license - for non-commercial use only
Optimize a model with 1 rows, 35 columns and 0 nonzeros
Variable types: 0 continuous, 35 integer (35 binary)
Coefficient statistics:
  Matrix range     [0e+00, 0e+00]
  Objective range  [1e+02, 5e+02]
  Bounds range     [1e+00, 1e+00]
  RHS range        [1e+00, 1e+00]
Presolve time: 0.00s

Explored 0 nodes (0 simplex iterations) in 0.00 seconds
Thread count was 1 (of 8 available processors)

Solution count 0

Model is infeasible
Best objective -, best bound -, gap -

Gurobi 7.5.2 (linux64, Python) logging started Wed Jun 13 17:21:29 2018

Academic license - for non-commercial use only
Warning: linear constraint 0 and linear constraint 31 have the same name "FacilityNb"

Gurobi 7.5.2 (linux64, Python) logging started Wed Jun 13 17:22:49 2018

Academic license - for non-commercial use only
Optimize a model with 31 rows, 35 columns and 94 nonzeros
Variable types: 0 continuous, 35 integer (35 binary)
Coefficient statistics:
  Matrix range     [1e+00, 1e+00]
  Objective range  [1e+02, 5e+02]
  Bounds range     [1e+00, 1e+00]
  RHS range        [1e+00, 1e+00]
Presolve time: 0.00s

Explored 0 nodes (0 simplex iterations) in 0.00 seconds
Thread count was 1 (of 8 available processors)

Solution count 0

Model is infeasible
Best objective -, best bound -, gap -
Optimize a model with 31 rows, 35 columns and 94 nonzeros
Variable types: 0 continuous, 35 integer (35 binary)
Coefficient statistics:
  Matrix range     [1e+00, 1e+00]
  Objective range  [1e+02, 5e+02]
  Bounds range     [1e+00, 1e+00]
  RHS range        [1e+00, 1e+00]
Presolve time: 0.00s

Explored 0 nodes (0 simplex iterations) in 0.00 seconds
Thread count was 1 (of 8 available processors)

Solution count 0

Model is infeasible
Best objective -, best bound -, gap -

Gurobi 7.5.2 (linux64, Python) logging started Wed Jun 13 17:27:19 2018

Academic license - for non-commercial use only
Optimize a model with 31 rows, 35 columns and 99 nonzeros
Variable types: 0 continuous, 35 integer (35 binary)
Coefficient statistics:
  Matrix range     [1e+00, 1e+00]
  Objective range  [1e+02, 5e+02]
  Bounds range     [1e+00, 1e+00]
  RHS range        [4e+00, 4e+00]
Found heuristic solution: objective 8294.0000000
Presolve removed 31 rows and 35 columns
Presolve time: 0.00s
Presolve: All rows and columns removed

Explored 0 nodes (0 simplex iterations) in 0.01 seconds
Thread count was 1 (of 8 available processors)

Solution count 2: 8754 8294 

Optimal solution found (tolerance 1.00e-04)
Best objective 8.754000000000e+03, best bound 8.754000000000e+03, gap 0.0000%

Gurobi 7.5.2 (linux64, Python) logging started Wed Jun 13 17:30:54 2018

Academic license - for non-commercial use only
Optimize a model with 31 rows, 35 columns and 99 nonzeros
Variable types: 0 continuous, 35 integer (35 binary)
Coefficient statistics:
  Matrix range     [1e+00, 1e+00]
  Objective range  [1e+02, 5e+02]
  Bounds range     [1e+00, 1e+00]
  RHS range        [4e+00, 4e+00]
Found heuristic solution: objective 8294.0000000
Presolve removed 31 rows and 35 columns
Presolve time: 0.00s
Presolve: All rows and columns removed

Explored 0 nodes (0 simplex iterations) in 0.01 seconds
Thread count was 1 (of 8 available processors)

Solution count 2: 8754 8294 

Optimal solution found (tolerance 1.00e-04)
Best objective 8.754000000000e+03, best bound 8.754000000000e+03, gap 0.0000%

Gurobi 7.5.2 (linux64, Python) logging started Wed Jun 13 17:31:12 2018

Academic license - for non-commercial use only
Optimize a model with 31 rows, 35 columns and 100 nonzeros
Variable types: 0 continuous, 35 integer (35 binary)
Coefficient statistics:
  Matrix range     [1e+00, 1e+00]
  Objective range  [1e+02, 5e+02]
  Bounds range     [1e+00, 1e+00]
  RHS range        [2e+00, 2e+00]
Found heuristic solution: objective 6300.0000000
Presolve removed 17 rows and 17 columns
Presolve time: 0.00s
Presolved: 14 rows, 18 columns, 49 nonzeros
Variable types: 0 continuous, 18 integer (18 binary)

Root relaxation: objective 7.288000e+03, 7 iterations, 0.00 seconds

    Nodes    |    Current Node    |     Objective Bounds      |     Work
 Expl Unexpl |  Obj  Depth IntInf | Incumbent    BestBd   Gap | It/Node Time

*    0     0               0    7288.0000000 7288.00000  0.00%     -    0s

Explored 0 nodes (7 simplex iterations) in 0.02 seconds
Thread count was 8 (of 8 available processors)

Solution count 2: 7288 6300 

Optimal solution found (tolerance 1.00e-04)
Best objective 7.288000000000e+03, best bound 7.288000000000e+03, gap 0.0000%

Gurobi 7.5.2 (linux64, Python) logging started Wed Jun 13 17:34:22 2018

Academic license - for non-commercial use only
Optimize a model with 31 rows, 35 columns and 108 nonzeros
Variable types: 0 continuous, 35 integer (35 binary)
Coefficient statistics:
  Matrix range     [1e+00, 1e+00]
  Objective range  [1e+02, 5e+02]
  Bounds range     [1e+00, 1e+00]
  RHS range        [2e+00, 2e+00]
Found heuristic solution: objective 6488.0000000
Presolve removed 19 rows and 19 columns
Presolve time: 0.00s
Presolved: 12 rows, 16 columns, 42 nonzeros
Variable types: 0 continuous, 16 integer (16 binary)

Root relaxation: objective 7.237000e+03, 5 iterations, 0.00 seconds

    Nodes    |    Current Node    |     Objective Bounds      |     Work
 Expl Unexpl |  Obj  Depth IntInf | Incumbent    BestBd   Gap | It/Node Time

*    0     0               0    7237.0000000 7237.00000  0.00%     -    0s

Explored 0 nodes (5 simplex iterations) in 0.01 seconds
Thread count was 8 (of 8 available processors)

Solution count 2: 7237 6488 

Optimal solution found (tolerance 1.00e-04)
Best objective 7.237000000000e+03, best bound 7.237000000000e+03, gap 0.0000%

Gurobi 7.5.2 (linux64, Python) logging started Wed Jun 13 17:34:38 2018

Academic license - for non-commercial use only
Optimize a model with 31 rows, 35 columns and 107 nonzeros
Variable types: 0 continuous, 35 integer (35 binary)
Coefficient statistics:
  Matrix range     [1e+00, 1e+00]
  Objective range  [1e+02, 5e+02]
  Bounds range     [1e+00, 1e+00]
  RHS range        [1e+00, 1e+00]
Found heuristic solution: objective 4000.0000000
Presolve removed 27 rows and 29 columns
Presolve time: 0.00s
Presolved: 4 rows, 6 columns, 12 nonzeros
Variable types: 0 continuous, 6 integer (6 binary)

Root relaxation: objective 4.191000e+03, 4 iterations, 0.00 seconds

    Nodes    |    Current Node    |     Objective Bounds      |     Work
 Expl Unexpl |  Obj  Depth IntInf | Incumbent    BestBd   Gap | It/Node Time

*    0     0               0    4191.0000000 4191.00000  0.00%     -    0s

Explored 0 nodes (4 simplex iterations) in 0.01 seconds
Thread count was 8 (of 8 available processors)

Solution count 2: 4191 4000 

Optimal solution found (tolerance 1.00e-04)
Best objective 4.191000000000e+03, best bound 4.191000000000e+03, gap 0.0000%

Gurobi 7.5.2 (linux64, Python) logging started Wed Jun 13 17:34:54 2018

Academic license - for non-commercial use only
Optimize a model with 31 rows, 35 columns and 106 nonzeros
Variable types: 0 continuous, 35 integer (35 binary)
Coefficient statistics:
  Matrix range     [1e+00, 1e+00]
  Objective range  [1e+02, 5e+02]
  Bounds range     [1e+00, 1e+00]
  RHS range        [2e+00, 2e+00]
Found heuristic solution: objective 5820.0000000
Presolve removed 18 rows and 18 columns
Presolve time: 0.00s
Presolved: 13 rows, 17 columns, 45 nonzeros
Variable types: 0 continuous, 17 integer (17 binary)

Root relaxation: objective 7.347500e+03, 10 iterations, 0.00 seconds

    Nodes    |    Current Node    |     Objective Bounds      |     Work
 Expl Unexpl |  Obj  Depth IntInf | Incumbent    BestBd   Gap | It/Node Time

     0     0 7347.50000    0    6 5820.00000 7347.50000  26.2%     -    0s
H    0     0                    6755.0000000 7347.50000  8.77%     -    0s
H    0     0                    6784.0000000 7347.50000  8.31%     -    0s
H    0     0                    6880.0000000 7347.50000  6.80%     -    0s
     0     0     cutoff    0      6880.00000 6880.00000  0.00%     -    0s

Cutting planes:
  Zero half: 1

Explored 1 nodes (14 simplex iterations) in 0.01 seconds
Thread count was 8 (of 8 available processors)

Solution count 4: 6880 6784 6755 5820 

Optimal solution found (tolerance 1.00e-04)
Best objective 6.880000000000e+03, best bound 6.880000000000e+03, gap 0.0000%

Gurobi 7.5.2 (linux64, Python) logging started Wed Jun 13 17:35:12 2018

Academic license - for non-commercial use only
Optimize a model with 30 rows, 5 columns and 73 nonzeros
Variable types: 0 continuous, 5 integer (5 binary)
Coefficient statistics:
  Matrix range     [1e+00, 1e+00]
  Objective range  [1e+03, 8e+03]
  Bounds range     [1e+00, 1e+00]
  RHS range        [1e+00, 1e+00]
Found heuristic solution: objective 19147.000000
Presolve removed 30 rows and 5 columns
Presolve time: 0.00s
Presolve: All rows and columns removed

Explored 0 nodes (0 simplex iterations) in 0.00 seconds
Thread count was 1 (of 8 available processors)

Solution count 1: 19147 

Optimal solution found (tolerance 1.00e-04)
Best objective 1.914700000000e+04, best bound 1.914700000000e+04, gap 0.0000%

Gurobi 7.5.2 (linux64, Python) logging started Wed Jun 13 18:05:07 2018

Academic license - for non-commercial use only

Gurobi 7.5.2 (linux64, Python) logging started Wed Jun 13 18:18:14 2018

Academic license - for non-commercial use only
Optimize a model with 30 rows, 5 columns and 71 nonzeros
Variable types: 0 continuous, 5 integer (5 binary)
Coefficient statistics:
  Matrix range     [1e+00, 1e+00]
  Objective range  [1e+03, 8e+03]
  Bounds range     [1e+00, 1e+00]
  RHS range        [1e+00, 1e+00]
Found heuristic solution: objective 19147.000000
Presolve removed 30 rows and 5 columns
Presolve time: 0.00s
Presolve: All rows and columns removed

Explored 0 nodes (0 simplex iterations) in 0.01 seconds
Thread count was 1 (of 8 available processors)

Solution count 1: 19147 

Optimal solution found (tolerance 1.00e-04)
Best objective 1.914700000000e+04, best bound 1.914700000000e+04, gap 0.0000%

Gurobi 7.5.2 (linux64, Python) logging started Wed Jun 13 18:18:21 2018

Academic license - for non-commercial use only
Optimize a model with 31 rows, 35 columns and 106 nonzeros
Variable types: 0 continuous, 35 integer (35 binary)
Coefficient statistics:
  Matrix range     [1e+00, 1e+00]
  Objective range  [1e+02, 5e+02]
  Bounds range     [1e+00, 1e+00]
  RHS range        [2e+00, 2e+00]
Found heuristic solution: objective 5820.0000000
Presolve removed 18 rows and 18 columns
Presolve time: 0.00s
Presolved: 13 rows, 17 columns, 45 nonzeros
Variable types: 0 continuous, 17 integer (17 binary)

Root relaxation: objective 7.347500e+03, 10 iterations, 0.00 seconds

    Nodes    |    Current Node    |     Objective Bounds      |     Work
 Expl Unexpl |  Obj  Depth IntInf | Incumbent    BestBd   Gap | It/Node Time

     0     0 7347.50000    0    6 5820.00000 7347.50000  26.2%     -    0s
H    0     0                    6755.0000000 7347.50000  8.77%     -    0s
H    0     0                    6784.0000000 7347.50000  8.31%     -    0s
H    0     0                    6880.0000000 7347.50000  6.80%     -    0s
     0     0     cutoff    0      6880.00000 6880.00000  0.00%     -    0s

Cutting planes:
  Zero half: 1

Explored 1 nodes (14 simplex iterations) in 0.02 seconds
Thread count was 8 (of 8 available processors)

Solution count 4: 6880 6784 6755 5820 

Optimal solution found (tolerance 1.00e-04)
Best objective 6.880000000000e+03, best bound 6.880000000000e+03, gap 0.0000%

Gurobi 7.5.2 (linux64, Python) logging started Wed Jun 13 18:20:04 2018

Academic license - for non-commercial use only

Gurobi 7.5.2 (linux64, Python) logging started Wed Jun 13 18:31:42 2018

Academic license - for non-commercial use only

Gurobi 7.5.2 (linux64, Python) logging started Wed Jun 13 18:37:57 2018

Academic license - for non-commercial use only

Gurobi 7.5.2 (linux64, Python) logging started Wed Jun 13 18:42:48 2018

Academic license - for non-commercial use only

Gurobi 7.5.2 (linux64, Python) logging started Wed Jun 13 18:48:08 2018

Academic license - for non-commercial use only
